
Gurobi 7.5.2 (linux64) logging started Sat Jul  7 16:17:38 2018

Changed value of parameter LogFile to result/ilp/simNo_7-n_100-m_40-s_4-minVAF_0.05-cov_10000-k_1-fn_0.05-fp_0.0001-na_0.15.ILP.gurobiSolverLog
   Prev: gurobi.log  Default: 
Changed value of parameter TimeLimit to 86400.0
   Prev: 1e+100  Min: 0.0  Max: 1e+100  Default: 1e+100
Optimize a model with 639293 rows, 10765 columns and 1940420 nonzeros
Variable types: 0 continuous, 10765 integer (10765 binary)
Coefficient statistics:
  Matrix range     [2e-04, 4e+00]
  Objective range  [1e-01, 9e+00]
  Bounds range     [1e+00, 1e+00]
  RHS range        [3e-01, 2e+00]
Found heuristic solution: objective -19420.38835
Presolve removed 128751 rows and 990 columns (presolve time = 5s) ...
Presolve removed 129714 rows and 990 columns (presolve time = 10s) ...
Presolve removed 130259 rows and 990 columns (presolve time = 20s) ...
Presolve removed 130259 rows and 990 columns (presolve time = 20s) ...
Presolve removed 184759 rows and 1535 columns (presolve time = 27s) ...
Presolve removed 184759 rows and 1535 columns
Presolve time: 28.61s
Presolved: 454534 rows, 9230 columns, 1368469 nonzeros
Variable types: 0 continuous, 9230 integer (9230 binary)
Presolved: 9230 rows, 463764 columns, 1377699 nonzeros

Presolve removed 9230 rows and 463764 columns

Root simplex log...

Iteration    Objective       Primal Inf.    Dual Inf.      Time
       0    2.9865545e+00   0.000000e+00   9.234000e+04     35s
    6163   -6.6595317e+01   0.000000e+00   4.029808e+04     35s
   25024   -2.2478447e+02   0.000000e+00   3.790938e+02     41s
   25309   -2.2452001e+02   0.000000e+00   0.000000e+00     41s
   25309   -2.2452001e+02   0.000000e+00   0.000000e+00     43s

Root relaxation: objective -2.245200e+02, 25309 iterations, 11.07 seconds
Total elapsed time = 89.74s
Total elapsed time = 131.33s
Total elapsed time = 180.85s

    Nodes    |    Current Node    |     Objective Bounds      |     Work
 Expl Unexpl |  Obj  Depth IntInf | Incumbent    BestBd   Gap | It/Node Time

     0     0 -224.52001    0  688 -19420.388 -224.52001  98.8%     -  229s
H    0     0                    -281.2660087 -224.52001  20.2%     -  235s
H    0     0                    -245.7800020 -224.52001  8.65%     -  237s
     0     0 -228.90539    0  656 -245.78000 -228.90539  6.87%     -  264s
     0     0 -229.63628    0  706 -245.78000 -229.63628  6.57%     -  325s
     0     0 -229.63628    0  707 -245.78000 -229.63628  6.57%     -  330s
     0     0 -232.70787    0  844 -245.78000 -232.70787  5.32%     -  486s
H    0     0                    -242.8564188 -232.70787  4.18%     -  493s
     0     0 -233.17298    0  812 -242.85642 -233.17298  3.99%     -  520s
     0     0 -234.53026    0  619 -242.85642 -234.53026  3.43%     -  652s
     0     0 -234.61974    0  679 -242.85642 -234.61974  3.39%     -  690s
     0     0 -234.61974    0  697 -242.85642 -234.61974  3.39%     -  697s
     0     0 -235.20497    0  720 -242.85642 -235.20497  3.15%     - 1225s
     0     0 -235.20497    0  671 -242.85642 -235.20497  3.15%     - 1334s
     0     0 -235.42884    0  831 -242.85642 -235.42884  3.06%     - 1338s
     0     0 -235.42884    0  808 -242.85642 -235.42884  3.06%     - 1341s
     0     0 -237.00925    0  292 -242.85642 -237.00925  2.41%     - 1346s
     0     0 -237.00925    0  613 -242.85642 -237.00925  2.41%     - 1355s
     0     0 -237.00925    0  680 -242.85642 -237.00925  2.41%     - 1357s
     0     0 -237.00925    0  684 -242.85642 -237.00925  2.41%     - 1358s
     0     0 -237.00925    0  312 -242.85642 -237.00925  2.41%     - 1359s
     0     0 -237.67614    0  520 -242.85642 -237.67614  2.13%     - 1360s
     0     0 -237.74015    0  301 -242.85642 -237.74015  2.11%     - 1360s
     0     0 -237.76327    0  633 -242.85642 -237.76327  2.10%     - 1361s
     0     0 -237.77869    0  629 -242.85642 -237.77869  2.09%     - 1361s
     0     0 -237.77869    0  536 -242.85642 -237.77869  2.09%     - 1362s
     0     0 -238.22564    0  587 -242.85642 -238.22564  1.91%     - 1362s
     0     0 -238.22564    0  587 -242.85642 -238.22564  1.91%     - 1363s
     0     0 -238.30324    0  602 -242.85642 -238.30324  1.87%     - 1363s
     0     0 -238.40703    0  509 -242.85642 -238.40703  1.83%     - 1364s
     0     0 -238.40703    0  522 -242.85642 -238.40703  1.83%     - 1364s
     0     0 -238.47104    0  304 -242.85642 -238.47104  1.81%     - 1365s
     0     0 -238.47104    0  306 -242.85642 -238.47104  1.81%     - 1366s
     0     0 -238.62501    0  588 -242.85642 -238.62501  1.74%     - 1366s
     0     0 -238.64329    0  586 -242.85642 -238.64329  1.73%     - 1367s
     0     0 -238.64329    0  578 -242.85642 -238.64329  1.73%     - 1367s
     0     0 -238.64329    0  579 -242.85642 -238.64329  1.73%     - 1368s
     0     0 -238.64329    0  593 -242.85642 -238.64329  1.73%     - 1368s
     0     0 -238.64329    0  593 -242.85642 -238.64329  1.73%     - 1369s
     0     0 -239.04266    0  543 -242.85642 -239.04266  1.57%     - 1372s
     0     0 -239.04266    0  537 -242.85642 -239.04266  1.57%     - 1373s
     0     0 -239.04266    0  556 -242.85642 -239.04266  1.57%     - 1373s
     0     0 -239.04266    0  562 -242.85642 -239.04266  1.57%     - 1374s
     0     0 -239.86883    0  494 -242.85642 -239.86883  1.23%     - 1376s
     0     0 -239.89016    0  544 -242.85642 -239.89016  1.22%     - 1377s
     0     0 -239.89016    0  541 -242.85642 -239.89016  1.22%     - 1377s
     0     0 -240.21500    0  539 -242.85642 -240.21500  1.09%     - 1378s
     0     0 -240.31391    0  533 -242.85642 -240.31391  1.05%     - 1378s
     0     0 -240.31391    0  534 -242.85642 -240.31391  1.05%     - 1379s
     0     0 -240.71328    0  512 -242.85642 -240.71328  0.88%     - 1382s
     0     0 -240.71328    0  573 -242.85642 -240.71328  0.88%     - 1384s
     0     0 -240.71328    0  263 -242.85642 -240.71328  0.88%     - 1385s
     0     0 -240.71328    0  270 -242.85642 -240.71328  0.88%     - 1385s
     0     0 -240.71328    0  304 -242.85642 -240.71328  0.88%     - 1385s
     0     0 -240.93468    0  371 -242.85642 -240.93468  0.79%     - 1385s
     0     0 -240.93468    0  364 -242.85642 -240.93468  0.79%     - 1386s
     0     0 -241.39463    0  151 -242.85642 -241.39463  0.60%     - 1387s

Explored 1 nodes (138068 simplex iterations) in 1387.82 seconds
Thread count was 1 (of 80 available processors)

Solution count 8: -242.856 -242.856 -242.856 ... -19420.4

Optimal solution found (tolerance 1.00e-04)
Best objective -2.428564188467e+02, best bound -2.428564188467e+02, gap 0.0000%
